4 
5  13 25 36 55 
6  03 11 20 30 38 46 53 
7  01 08 16 23 31 38 46 53 
8  01 08 16 23 31 38 46 53 
9  01 08 16 23 30 38 45 53 
10  00 08 15 23 30 38 45 53 
11  00 08 15 23 30 38 45 53 
12  00 08 15 23 30 38 45 53 
13  00 08 15 23 30 38 45 53 
14  00 08 15 23 30 38 45 53 
15  00 08 15 23 30 38 45 53 
16  00 08 15 23 30 38 45 53 
17  00 08 15 23 30 38 45 53 
18  00 08 15 23 30 38 45 53 
19  00 08 15 23 30 38 45 53 
20  00 08 15 23 32 47 
21  02 17 32 47 
22  02 16 31 47 
23  02 14 
0 
